12
5 9
5 6
5 2
5 8
5 1
5 11
5 4
5 0
5 3
5 10
5 7
9 6
9 8
9 4
9 2
9 11
9 10
9 3
9 1
9 7
9 0
6 1
6 7
6 10
6 3
6 2
6 11
6 4
6 8
6 0
1 3
1 11
1 2
1 10
1 4
1 0
1 8
1 7
3 11
3 0
3 7
3 10
3 4
3 2
3 8
10 11
10 0
10 8
10 7
10 4
10 2
11 7
11 0
11 8
11 4
11 2
4 7
4 8
4 0
4 2
7 0
7 2
7 8
8 2
8 0
2 0
